# Solution for model conservation_srl_ilp
# Objective value = 1.0837174529604507e+01
Z_117_0_0 0
Z_117_0_1 0
Z_117_0_2 1
Z_117_0_3 0
Z_117_0_4 0
Z_564_0_0 0
Z_564_0_1 0
Z_564_0_2 1
Z_564_0_3 0
Z_564_0_4 0
Z_423_2_0 0
Z_423_2_1 0
Z_423_2_2 0
Z_423_2_3 0
Z_423_2_4 1
Z_423_7_0 0
Z_423_7_1 0
Z_423_7_2 0
Z_423_7_3 0
Z_423_7_4 1
Z_423_4_0 0
Z_423_4_1 0
Z_423_4_2 0
Z_423_4_3 0
Z_423_4_4 1
Z_423_6_0 0
Z_423_6_1 0
Z_423_6_2 0
Z_423_6_3 0
Z_423_6_4 1
Z_423_5_0 0
Z_423_5_1 0
Z_423_5_2 0
Z_423_5_3 0
Z_423_5_4 1
Z_423_1_0 0
Z_423_1_1 0
Z_423_1_2 0
Z_423_1_3 0
Z_423_1_4 1
Z_423_8_0 0
Z_423_8_1 0
Z_423_8_2 0
Z_423_8_3 0
Z_423_8_4 1
Z_423_10_0 0
Z_423_10_1 0
Z_423_10_2 0
Z_423_10_3 0
Z_423_10_4 1
Z_423_9_0 0
Z_423_9_1 0
Z_423_9_2 0
Z_423_9_3 0
Z_423_9_4 1
Z_423_0_0 0
Z_423_0_1 0
Z_423_0_2 1
Z_423_0_3 0
Z_423_0_4 0
Z_627_1_0 0
Z_627_1_1 0
Z_627_1_2 0
Z_627_1_3 0
Z_627_1_4 1
Z_627_2_0 0
Z_627_2_1 0
Z_627_2_2 0
Z_627_2_3 0
Z_627_2_4 1
Z_627_0_0 0
Z_627_0_1 0
Z_627_0_2 1
Z_627_0_3 0
Z_627_0_4 0
Z_650_0_0 0
Z_650_0_1 0
Z_650_0_2 1
Z_650_0_3 0
Z_650_0_4 0
